# Objective value = 2.9614997797036165e+02
x[0] 1
x[1] 0
x[2] 0
x[3] 0
x[4] 0
x[5] 1
x[6] 0
x[7] 1
x[8] 0
x[9] 0
x[10] 1
x[11] 1
x[12] 1
x[13] 0
x[14] 1
x[15] 0
x[16] 0
x[17] 0
x[18] 0
x[19] 0
x[20] 0
x[21] 0
x[22] 1
x[23] 0
x[24] 0
x[25] 0
x[26] 1
x[27] 0
x[28] 0
x[29] 1
x[30] 0
x[31] 0
x[32] 1
x[33] 0
x[34] 0
x[35] 0
x[36] 0
x[37] 0
x[38] 0
x[39] 1
x[40] 1
x[41] 0
x[42] 1
x[43] 1
x[44] 1
x[45] 0
x[46] 0
x[47] 0
x[48] 1
x[49] 1
x[50] 0
x[51] 1
x[52] 1
x[53] 0
x[54] 0
x[55] 0
x[56] 0
x[57] 0
x[58] 0
x[59] 0
x[60] 1
x[61] 1
x[62] 1
x[63] 1
x[64] 1
x[65] 0
x[66] 1
x[67] 1
x[68] 0
x[69] 0
x[70] 1
x[71] 0
x[72] 0
x[73] 0
x[74] 0
x[75] 0
x[76] 1
x[77] 0
x[78] 0
x[79] 1
x[80] 0
x[81] 0
x[82] 0
x[83] 1
x[84] 1
x[85] 1
x[86] 1
x[87] 0
x[88] 1
x[89] 0
x[90] 0
x[91] 0
x[92] 1
x[93] 1
x[94] 1
x[95] 0
x[96] 0
x[97] 0
x[98] 0
x[99] 0
x[100] 1
x[101] 0
x[102] 1
x[103] 0
x[104] 1
x[105] 1
x[106] 0
x[107] 0
x[108] 0
x[109] 1
x[110] 0
x[111] 1
x[112] 0
x[113] 0
x[114] 0
x[115] 0
x[116] 1
x[117] 0
x[118] 0
x[119] 1
x[120] 0
x[121] 1
x[122] 1
x[123] 1
x[124] 1
x[125] 0
x[126] 0
x[127] 0
x[128] 0
x[129] 0
x[130] 1
x[131] 0
x[132] 0
x[133] 1
x[134] 1
x[135] 0
x[136] 1
x[137] 1
x[138] 0
x[139] 0
x[140] 0
x[141] 0
x[142] 1
x[143] 0
x[144] 1
x[145] 1
x[146] 0
x[147] 1
x[148] 1
x[149] 1
x[150] 0
x[151] 0
x[152] 1
x[153] 1
x[154] 0
x[155] 1
x[156] 0
x[157] 1
x[158] 1
x[159] 1
x[160] 0
x[161] 1
x[162] 1
x[163] 0
x[164] 0
x[165] 0
x[166] 1
x[167] 1
x[168] 0
x[169] 0
x[170] 1
x[171] 1
x[172] 0
x[173] 1
x[174] 1
x[175] 1
x[176] 1
x[177] 1
x[178] 0
x[179] 0
x[180] 0
x[181] 1
x[182] 0
x[183] 0
x[184] 0
x[185] 0
x[186] 0
x[187] 0
x[188] 1
x[189] 1
x[190] 1
x[191] 0
x[192] 0
x[193] 0
x[194] 1
x[195] 1
x[196] 1
x[197] 1
x[198] 0
x[199] 0
x[200] 0
x[201] 0
x[202] 1
x[203] 1
x[204] 1
x[205] 0
x[206] 1
x[207] 0
x[208] 1
x[209] 1
x[210] 0
x[211] 1
x[212] 1
x[213] 0
x[214] 0
x[215] 1
x[216] 1
x[217] 1
x[218] 0
x[219] 1
x[220] 1
x[221] 1
x[222] 0
x[223] 1
x[224] 0
x[225] 0
x[226] 1
x[227] 0
x[228] 0
x[229] 0
x[230] 0
x[231] 1
x[232] 0
x[233] 0
x[234] 1
x[235] 1
x[236] 0
x[237] 1
x[238] 1
x[239] 0
x[240] 0
x[241] 1
x[242] 1
x[243] 0
x[244] 1
x[245] 0
x[246] 0
x[247] 1
x[248] 0
x[249] 1
x[250] 0
x[251] 0
x[252] 1
x[253] 1
x[254] 0
x[255] 0
x[256] 1
x[257] 0
x[258] 1
x[259] 0
x[260] 0
x[261] 1
x[262] 0
x[263] 1
x[264] 0
x[265] 1
x[266] 0
x[267] 1
x[268] 0
x[269] 0
x[270] 1
x[271] 0
x[272] 1
x[273] 1
x[274] 1
x[275] 1
x[276] 0
x[277] 1
x[278] 0
x[279] 0
x[280] 0
x[281] 0
x[282] 1
x[283] 1
x[284] 0
x[285] 1
x[286] 0
x[287] 0
x[288] 0
x[289] 1
x[290] 0
x[291] 1
x[292] 1
x[293] 1
x[294] 0
x[295] 1
x[296] 0
x[297] 1
x[298] 0
x[299] 0
x[300] 0
x[301] 1
x[302] 1
x[303] 0
x[304] 1
x[305] 0
x[306] 1
x[307] 0
x[308] 1
x[309] 0
x[310] 0
x[311] 0
x[312] 0
x[313] 0
x[314] 1
x[315] 0
x[316] 0
x[317] 1
x[318] 1
x[319] 1
x[320] 0
x[321] 1
x[322] 1
x[323] 1
x[324] 1
x[325] 0
x[326] 1
x[327] 0
x[328] 1
x[329] 0
x[330] 1
x[331] 0
x[332] 0
x[333] 0
x[334] 1
x[335] 0
x[336] 1
x[337] 0
x[338] 1
x[339] 1
x[340] 0
x[341] 1
x[342] 1
x[343] 1
x[344] 1
x[345] 0
x[346] 0
x[347] 1
x[348] 1
x[349] 1
x[350] 0
x[351] 0
x[352] 0
x[353] 0
x[354] 1
x[355] 1
x[356] 0
x[357] 0
x[358] 1
x[359] 1
x[360] 1
x[361] 0
x[362] 0
x[363] 0
x[364] 1
x[365] 0
x[366] 0
x[367] 1
x[368] 0
x[369] 0
x[370] 1
x[371] 0
x[372] 1
x[373] 0
x[374] 1
x[375] 0
x[376] 0
x[377] 1
x[378] 0
x[379] 1
x[380] 0
x[381] 1
x[382] 1
x[383] 0
x[384] 0
x[385] 1
x[386] 1
x[387] 1
x[388] 1
x[389] 0
x[390] 1
x[391] 1
x[392] 1
x[393] 0
x[394] 0
x[395] 1
x[396] 1
x[397] 0
x[398] 1
x[399] 0
x[400] 0
x[401] 0
x[402] 1
x[403] 0
x[404] 1
x[405] 1
x[406] 1
x[407] 0
x[408] 1
x[409] 1
x[410] 0
x[411] 1
x[412] 1
x[413] 0
x[414] 1
x[415] 0
x[416] 0
x[417] 0
x[418] 1
x[419] 0
x[420] 0
x[421] 0
x[422] 1
x[423] 0
x[424] 1
x[425] 0
x[426] 0
x[427] 0
x[428] 1
x[429] 1
x[430] 0
x[431] 1
x[432] 0
x[433] 0
x[434] 1
x[435] 0
x[436] 1
x[437] 0
x[438] 0
x[439] 1
x[440] 0
x[441] 0
x[442] 1
x[443] 1
x[444] 1
x[445] 0
x[446] 1
x[447] 1
x[448] 1
x[449] 1
x[450] 1
x[451] 0
x[452] 0
x[453] 1
x[454] 0
x[455] 1
x[456] 0
x[457] 1
x[458] 0
x[459] 1
x[460] 1
x[461] 1
x[462] 0
x[463] 1
x[464] 0
x[465] 0
x[466] 1
x[467] 1
x[468] 0
x[469] 1
x[470] 1
x[471] 1
x[472] 1
x[473] 0
x[474] 1
x[475] 0
x[476] 1
x[477] 0
x[478] 0
x[479] 1
x[480] 1
x[481] 1
x[482] 1
x[483] 0
x[484] 1
x[485] 1
x[486] 1
x[487] 0
x[488] 1
x[489] 1
x[490] 1
x[491] 0
x[492] 0
x[493] 1
x[494] 1
x[495] 1
x[496] 1
x[497] 1
x[498] 0
x[499] 1
x[500] 0
x[501] 0
x[502] 0
x[503] 0
x[504] 0
x[505] 0
x[506] 0
x[507] 0
x[508] 0
x[509] 0
x[510] 0
x[511] 0
x[512] 0
x[513] 1
x[514] 1
x[515] 0
x[516] 1
x[517] 1
x[518] 0
x[519] 1
x[520] 1
x[521] 1
x[522] 0
x[523] 1
x[524] 0
x[525] 1
x[526] 0
x[527] 0
x[528] 1
x[529] 1
x[530] 0
x[531] 1
x[532] 1
x[533] 1
x[534] 1
x[535] 0
x[536] 0
x[537] 0
x[538] 0
x[539] 1
x[540] 1
x[541] 0
x[542] 1
x[543] 1
x[544] 1
x[545] 1
x[546] 0
x[547] 0
x[548] 0
x[549] 0
x[550] 0
x[551] 1
x[552] 1
x[553] 1
x[554] 0
x[555] 0
x[556] 0
x[557] 0
x[558] 0
x[559] 0
x[560] 0
x[561] 0
x[562] 0
x[563] 1
x[564] 1
x[565] 0
x[566] 1
x[567] 1
x[568] 1
x[569] 0
x[570] 0
x[571] 1
x[572] 0
x[573] 1
x[574] 1
x[575] 1
x[576] 0
x[577] 1
x[578] 0
x[579] 1
x[580] 1
x[581] 0
x[582] 0
x[583] 0
x[584] 0
x[585] 1
x[586] 1
x[587] 0
x[588] 0
x[589] 1
x[590] 1
x[591] 1
x[592] 0
x[593] 1
x[594] 0
x[595] 0
x[596] 0
x[597] 0
x[598] 0
x[599] 1
x[600] 1
x[601] 1
x[602] 0
x[603] 0
x[604] 1
x[605] 1
x[606] 0
x[607] 0
x[608] 1
x[609] 1
x[610] 1
x[611] 0
x[612] 1
x[613] 0
x[614] 1
x[615] 0
x[616] 0
x[617] 0
x[618] 0
x[619] 1
x[620] 0
x[621] 1
x[622] 1
x[623] 0
x[624] 0
x[625] 0
x[626] 0
x[627] 1
x[628] 1
x[629] 1
x[630] 1
x[631] 0
x[632] 0
x[633] 0
x[634] 1
x[635] 0
x[636] 1
x[637] 1
x[638] 1
x[639] 1
x[640] 1
x[641] 0
x[642] 0
x[643] 1
x[644] 1
x[645] 0
x[646] 0
x[647] 1
x[648] 0
x[649] 0
x[650] 1
x[651] 0
x[652] 0
x[653] 0
x[654] 1
x[655] 1
x[656] 1
x[657] 1
x[658] 1
x[659] 0
x[660] 0
x[661] 1
x[662] 0
x[663] 0
x[664] 1
x[665] 0
x[666] 1
x[667] 0
x[668] 0
x[669] 0
x[670] 0
x[671] 0
x[672] 1
x[673] 0
x[674] 0
x[675] 1
x[676] 0
x[677] 1
x[678] 0
x[679] 0
x[680] 0
x[681] 1
x[682] 1
x[683] 1
x[684] 1
x[685] 0
x[686] 0
x[687] 0
x[688] 0
x[689] 0
x[690] 0
x[691] 0
x[692] 1
x[693] 0
x[694] 1
x[695] 0
x[696] 0
x[697] 1
x[698] 0
x[699] 1
x[700] 1
x[701] 1
x[702] 1
x[703] 1
x[704] 0
x[705] 1
x[706] 0
x[707] 0
x[708] 1
x[709] 0
x[710] 0
x[711] 0
x[712] 1
x[713] 0
x[714] 1
x[715] 0
x[716] 0
x[717] 1
x[718] 1
x[719] 0
x[720] 0
x[721] 1
x[722] 0
x[723] 0
x[724] 1
x[725] 1
x[726] 0
x[727] 1
x[728] 1
x[729] 0
x[730] 1
x[731] 0
x[732] 0
x[733] 1
x[734] 1
x[735] 1
x[736] 0
x[737] 1
x[738] 0
x[739] 0
x[740] 1
x[741] 0
x[742] 0
x[743] 1
x[744] 1
x[745] 0
x[746] 0
x[747] 1
x[748] 0
x[749] 0
x[750] 0
x[751] 1
x[752] 1
x[753] 0
x[754] 0
x[755] 1
x[756] 1
x[757] 1
x[758] 1
x[759] 0
x[760] 0
x[761] 0
x[762] 0
x[763] 0
x[764] 0
x[765] 0
x[766] 1
x[767] 0
x[768] 0
x[769] 0
x[770] 1
x[771] 1
x[772] 0
x[773] 0
x[774] 0
x[775] 0
x[776] 1
x[777] 1
x[778] 1
x[779] 1
x[780] 1
x[781] 0
x[782] 1
x[783] 0
x[784] 0
x[785] 1
x[786] 0
x[787] 1
x[788] 1
x[789] 1
x[790] 0
x[791] 0
x[792] 0
x[793] 1
x[794] 0
x[795] 0
x[796] 1
x[797] 1
x[798] 0
x[799] 1
x[800] 0
x[801] 1
x[802] 1
x[803] 0
x[804] 1
x[805] 0
x[806] 0
x[807] 0
x[808] 1
x[809] 0
x[810] 1
x[811] 0
x[812] 1
x[813] 1
x[814] 1
x[815] 0
x[816] 1
x[817] 0
x[818] 0
x[819] 0
x[820] 0
x[821] 0
x[822] 0
x[823] 0
x[824] 0
x[825] 0
x[826] 1
x[827] 0
x[828] 1
x[829] 0
x[830] 0
x[831] 0
x[832] 0
x[833] 1
x[834] 1
x[835] 1
x[836] 0
x[837] 0
x[838] 1
x[839] 1
x[840] 1
x[841] 0
x[842] 0
x[843] 1
x[844] 0
x[845] 0
x[846] 0
x[847] 0
x[848] 1
x[849] 1
x[850] 1
x[851] 1
x[852] 1
x[853] 1
x[854] 0
x[855] 1
x[856] 1
x[857] 1
x[858] 0
x[859] 0
x[860] 0
x[861] 1
x[862] 1
x[863] 0
x[864] 0
x[865] 1
x[866] 1
x[867] 0
x[868] 0
x[869] 1
x[870] 1
x[871] 0
x[872] 0
x[873] 0
x[874] 1
x[875] 1
x[876] 1
x[877] 1
x[878] 1
x[879] 0
x[880] 1
x[881] 1
x[882] 1
x[883] 0
x[884] 1
x[885] 1
x[886] 1
x[887] 1
x[888] 1
x[889] 0
x[890] 0
x[891] 1
x[892] 0
x[893] 1
x[894] 1
x[895] 0
x[896] 1
x[897] 0
x[898] 1
x[899] 0
x[900] 1
x[901] 0
x[902] 0
x[903] 0
x[904] 1
x[905] 1
x[906] 0
x[907] 0
x[908] 1
x[909] 0
x[910] 1
x[911] 1
x[912] 0
x[913] 0
x[914] 0
x[915] 0
x[916] 0
x[917] 0
x[918] 1
x[919] 1
x[920] 0
x[921] 0
x[922] 1
x[923] 1
x[924] 0
x[925] 0
x[926] 0
x[927] 0
x[928] 0
x[929] 1
x[930] 0
x[931] 1
x[932] 0
x[933] 0
x[934] 0
x[935] 0
x[936] 1
x[937] 0
x[938] 1
x[939] 0
x[940] 0
x[941] 5.5628798278712728e-07
x[942] 0
x[943] 1
x[944] 0
x[945] 0
x[946] 0
x[947] 1
x[948] 0
x[949] 0
x[950] 0
x[951] 1
x[952] 1
x[953] 0
x[954] 1
x[955] 0
x[956] 1
x[957] 0
x[958] 0
x[959] 1
x[960] 1
x[961] 0
x[962] 1
x[963] 0
x[964] 1
x[965] 0
x[966] 0
x[967] 0
x[968] 1
x[969] 1
x[970] 0
x[971] 1
x[972] 0
x[973] 0
x[974] 0
x[975] 1
x[976] 0
x[977] 0
x[978] 1
x[979] 0
x[980] 0
x[981] 1
x[982] 0
x[983] 0
x[984] 1
x[985] 1
x[986] 0
x[987] 0
x[988] 1
x[989] 0
x[990] 1
x[991] 1
x[992] 0
x[993] 0
x[994] 1
x[995] 0
x[996] 0
x[997] 0
x[998] 1
x[999] 1
